\ This file was automatically generated by Zimpl
\ set indice := {1, 2, 3};
\ param custoAlimentoKgReais[indice] := <1> 0.21, <2> 0.18, <3> 0.15;
\ param qtdCarboidratros[indice] := <1> 90, <2> 20, <3> 40;
\ param qtdProteinas[indice] := <1>30, <2> 80, <3> 60;
\ param qtdVitaminas[indice] := <1>10, <2> 20, <3> 60;
\ var quantAlimentoKG[indice] >= 0;
\ minimize custo: sum<i> in indice : custoAlimentoKgReais[i] * quantAlimentoKG[i];
\ subto carboidratos:  sum<i> in indice : qtdCarboidratros[i] * quantAlimentoKG[i] >= 200;
\ subto proteinas: sum<i> in indice : qtdProteinas[i] * quantAlimentoKG[i] >= 180;
\ subto vitaminas: sum<i> in indice : qtdVitaminas[i] * quantAlimentoKG[i] >= 150;
\Problem name: .\file.zpl
Minimize
 custo:  +0.21 quantAlimentoK@0 +0.18 quantAlimentoK@1 +0.15 quantAlimentoK@2
Subject to
 carboidratos_1:
  +40 quantAlimentoK@2 +20 quantAlimentoK@1 +90 quantAlimentoK@0 >= 200
 proteinas_1:
  +60 quantAlimentoK@2 +80 quantAlimentoK@1 +30 quantAlimentoK@0 >= 180
 vitaminas_1:
  +60 quantAlimentoK@2 +20 quantAlimentoK@1 +10 quantAlimentoK@0 >= 150
Bounds
 0 <= quantAlimentoK@0 <= +inf
 0 <= quantAlimentoK@1 <= +inf
 0 <= quantAlimentoK@2 <= +inf
End
